c defined variables: 
p cnf 85 57
a 1 2 3 4 5 6 7 8 9 10 11 12 13 0
d 14 4 7 8 0
d 15 6 0
d 16 2 5 8 11 0
d 17 5 7 9 11 0
d 18 7 0
d 19 4 6 9 10 11 13 0
d 20 2 5 7 0
d 21 9 0
d 22 3 0
d 23 2 4 5 9 10 0
d 24 1 2 5 7 9 12 0
d 25 1 3 0
d 26 7 8 0
d 27 2 11 12 0
-5 -11 14 -17 18 0
5 -10 -15 17 -19 0
7 -11 -14 16 19 0
5 -7 -14 -17 19 0
-2 -9 -16 -17 -20 0
3 5 -19 -20 -22 0
7 -10 -16 20 -23 0
4 -10 14 -22 -23 0
9 10 19 -22 -23 0
-2 -5 14 15 23 0
-2 -8 16 -21 23 0
3 -9 -14 -22 23 0
-5 -8 14 22 23 0
-2 -9 20 22 23 0
-1 6 -15 -18 -24 0
10 11 -19 -20 -24 0
9 12 -21 -23 -24 0
7 9 17 23 -24 0
2 6 14 15 24 0
2 5 14 17 24 0
-7 -8 -16 -20 24 0
6 -11 -19 -20 24 0
1 5 19 21 24 0
1 -13 -19 23 24 0
3 -11 -16 -17 -25 0
-8 -10 -16 -19 -25 0
-1 7 14 19 -25 0
-5 11 17 -21 -25 0
5 11 17 -21 -25 0
4 -8 -14 -21 25 0
1 10 21 -23 25 0
1 -4 -15 23 25 0
3 -6 15 -24 25 0
2 12 20 24 25 0
8 -11 -16 17 -26 0
5 -7 17 21 -26 0
1 -8 -21 -24 -26 0
-4 11 14 16 26 0
9 -11 -16 17 26 0
8 -11 15 19 26 0
-7 -8 -19 -25 26 0
8 11 -14 -16 -27 0
11 -12 -16 17 -27 0
-4 10 14 19 -27 0
11 13 17 19 -27 0
7 11 -17 -20 -27 0
5 -9 -19 -20 -27 0
-5 -12 15 -24 -27 0
2 -11 -21 24 -27 0
-4 -12 -19 -26 -27 0
-2 12 24 26 -27 0
3 -12 -14 -22 27 0
4 -12 -19 -23 27 0
2 -5 -14 23 27 0
-1 5 16 25 27 0
-2 11 24 25 27 0
-8 -12 -19 26 27 0
